50
100
96
93
86
86
85
83
80
80
80
79
77
68
67
64
64
63
60
57
55
54
54
54
54
52
52
52
51
44
43
41
41
39
39
39
38
36
36
35
34
34
31
31
29
29
28
24
23
22
22
20
